nApps = 226
nRes = 9
nActs = 418
nNetworks = 6

assignmentToResources = [3,1,2,3,3,3,2,3,3,3,2,2,3,2,2,2,3,1,3,1,2,2,2,2,2,2,3,2,3,2,2,3,2,2,2,3,2,3,2,2,1,3,1,1,3,3,1,3,1,2,2,3,3,1,2,3,3,2,1,3,2,2,1,3,2,1,1,2,2,2,3,3,3,2,3,1,1,1,3,2,3,2,3,3,2,3,1,2,3,1,2,2,2,1,3,3,3,3,1,2,6,6,6,4,4,4,4,5,5,5,6,6,6,6,6,5,5,6,6,6,6,6,6,5,5,5,5,6,6,6,5,5,5,5,5,5,5,5,5,5,5,5,6,4,6,6,6,4,4,4,4,5,5,5,5,5,6,6,5,5,5,6,6,6,6,6,5,5,5,5,5,5,5,5,6,5,5,5,5,6,5,5,5,5,4,4,4,4,4,4,4,6,6,6,6,4,6,4,5,5,5,6,6,6,6,4,4,5,5,4,5,4,4,6,5,4,4,5,6,6,6,4,4,4,5,5,6,6,5,6,5,6,4,4,5,5,5,5,5,5,5,5,5,5,5,4,6,6,5,7,6,8,4,8,6,7,5,9,6,7,6,8,4,9,5,7,5,9,6,8,7,8,8,8,8,9,9,9,9,7,8,7,7,8,8,9,9,8,7,7,8,8,7,9,9,9,9,8,7,7,7,7,9,9,9,9,7,9,9,9,7,9,8,9,8,7,8,9,9,9,8,9,7,9,9,9,8,8,7,9,9,8,8,8,7,8,7,9,7,9,9,7,9,9,8,9,9,9,9,7,9,9,9,9,9,8,9,8,9,9,9,7,8,8,8,8,8,8,7,9,9,8,7,8,7,8,8,7,7,8,9,9,8,8,7,9,8,9,8,8,7,8,9,9,9,7,8,7,7,8,7,8,8,8,9,9,9,7,9,9,7,9,9,7,7,9,7,8];

processingTimes = [120,96,112,72,96,136,96,72,120,160,56,136,136,136,144,48,104,160,112,112,48,120,128,48,144,120,80,64,136,72,88,120,96,128,56,96,160,48,128,136,160,112,136,168,160,112,120,96,128,120,136,120,56,168,72,136,160,120,160,144,72,64,120,136,56,120,152,144,120,160,56,168,56,144,48,80,104,128,72,88,104,104,104,80,128,104,104,136,120,64,48,136,152,160,120,120,128,128,104,80,3,500,4,3,4,4,4,8,4,4,4,4,3,5,4,3,500,4,3,4,4,500,3,500,4,4,3,5,500,500,4,3,500,500,3,500,4,4,3,3,3,4,4,2000,4,100,4,3,3,3,500,13,3,3,3,500,3,3,3,500,3,5,5,4,4,3,3,3,3,3,500,4,4,4,500,3,3,4,4,4,3,3,3,3,4,500,1000,3,1000,4,1000,3,500,8,500,8,4,5,500,3,3,3,4,4,500,4,4,500,5,13,3,4,5,3,3,1000,4,4,4,3,3,5,4,5000,4,4,4,4,3,4,3,3,3,3,7,500,3,3,3,3,3,3,500,500,500,4,5,4,3,3,500,500,500,500,500,500,500,500,500,500,4,4,7,7,3,3,10,10,3,3,3,500,4,3,4,4,4,8,4,4,4,4,3,5,4,3,500,4,3,4,4,500,3,500,4,4,3,5,500,500,4,3,500,500,3,500,4,4,3,3,3,4,4,2000,4,100,4,3,3,3,500,13,3,3,3,500,3,3,3,500,3,5,5,4,4,3,3,3,3,3,500,4,4,4,500,3,3,4,4,4,3,3,3,3,4,500,1000,3,1000,4,1000,3,500,8,500,8,4,5,500,3,3,3,4,4,500,4,4,500,5,13,3,4,5,3,3,1000,4,4,4,3,3,5,4,5000,4,4,4,4,3,4,3,3,3,3,7,500,3,3,3,3,3,3,500,500,500,4,5,4];

periods = [20000,10000,10000,20000,20000,100000,100000,100000,20000,20000,100000,100000,10000,100000,10000,20000,20000,20000,1000,10000,10000,100000,10000,1000,10000,100000,10000,100000,100000,100000,100000,20000,20000,50000,50000,100000,50000,100000,10000,2000,10000,100000,10000,10000,100000,50000,10000,10000,10000,50000,20000,20000,20000,20000,10000,100000,10000,100000,100000,10000,20000,20000,20000,10000,10000,10000,1000,10000,100000,100000,20000,10000,20000,10000,20000,20000,100000,20000,10000,10000,20000,10000,100000,100000,20000,20000,10000,100000,10000,20000,20000,100000,10000,20000,20000,100000,100000,20000,10000,100000,20000,20000,20000,10000,10000,10000,10000,10000,10000,10000,20000,20000,20000,100000,100000,100000,100000,100000,20000,20000,20000,20000,20000,100000,100000,100000,100000,10000,10000,10000,100000,100000,100000,100000,10000,10000,10000,10000,20000,20000,20000,20000,20000,20000,1000,1000,1000,10000,10000,10000,10000,10000,10000,10000,100000,100000,10000,10000,100000,100000,100000,100000,100000,100000,100000,100000,100000,100000,100000,100000,100000,100000,100000,100000,20000,50000,50000,50000,50000,100000,50000,50000,50000,10000,10000,10000,10000,10000,10000,10000,10000,100000,100000,50000,50000,10000,10000,10000,20000,20000,20000,20000,20000,20000,20000,20000,20000,10000,100000,100000,20000,20000,20000,10000,10000,10000,10000,100000,20000,10000,20000,20000,100000,100000,10000,10000,20000,20000,10000,100000,20000,20000,10000,10000,100000,100000,100000,100000,100000,100000,20000,20000,20000,100000,10000,20000,20000,20000,10000,10000,20000,20000,20000,20000,20000,20000,20000,20000,20000,20000,10000,10000,10000,10000,1000,1000,50000,50000,10000,10000,20000,20000,20000,10000,10000,10000,10000,10000,10000,10000,20000,20000,20000,100000,100000,100000,100000,100000,20000,20000,20000,20000,20000,100000,100000,100000,100000,10000,10000,10000,100000,100000,100000,100000,10000,10000,10000,10000,20000,20000,20000,20000,20000,20000,1000,1000,1000,10000,10000,10000,10000,10000,10000,10000,100000,100000,10000,10000,100000,100000,100000,100000,100000,100000,100000,100000,100000,100000,100000,100000,100000,100000,100000,100000,20000,50000,50000,50000,50000,100000,50000,50000,50000,10000,10000,10000,10000,10000,10000,10000,10000,100000,100000,50000,50000,10000,10000,10000,20000,20000,20000,20000,20000,20000,20000,20000,20000,10000,100000,100000,20000,20000,20000,10000,10000,10000,10000,100000,20000,10000,20000,20000,100000,100000,10000,10000,20000,20000,10000,100000,20000,20000,10000,10000,100000,100000,100000,100000,100000,100000,20000,20000,20000,100000,10000,20000,20000,20000];

assignmentToClusters = [1,2,3,4,5,6,7,6,8,9,10,11,12,13,14,8,15,8,16,17,18,19,12,20,21,22,23,24,25,26,27,28,29,30,31,6,32,33,34,35,36,6,37,38,33,39,40,41,42,39,43,44,45,46,47,48,49,50,51,52,53,8,54,17,55,56,20,52,57,58,8,59,28,60,61,62,63,64,23,2,28,52,25,33,65,66,67,68,69,8,70,71,72,73,61,74,75,76,77,78,79,80,81,82,83,84,85,86,87,88,89,90,91,92,93,94,95,96,97,98,99,100,101,102,103,104,105,106,107,108,109,110,111,112,113,114,115,116,117,118,119,120,121,122,123,124,125,126,127,128,129,130,131,132,133,134,135,136,137,138,139,140,141,142,143,144,145,146,147,148,149,150,151,152,153,154,155,156,157,158,159,160,161,162,163,164,165,166,167,168,169,170,171,172,173,174,175,176,177,178,179,180,181,182,183,184,185,186,187,188,189,190,191,192,193,194,195,196,197,198,199,200,201,202,203,204,205,206,207,208,209,210,211,212,213,214,215,216,217,218,219,220,221,222,223,224,225,226,2,2,8,8,8,8,8,8,8,8,8,8,12,12,17,17,20,20,39,39,52,52,79,80,81,82,83,84,85,86,87,88,89,90,91,92,93,94,95,96,97,98,99,100,101,102,103,104,105,106,107,108,109,110,111,112,113,114,115,116,117,118,119,120,121,122,123,124,125,126,127,128,129,130,131,132,133,134,135,136,137,138,139,140,141,142,143,144,145,146,147,148,149,150,151,152,153,154,155,156,157,158,159,160,161,162,163,164,165,166,167,168,169,170,171,172,173,174,175,176,177,178,179,180,181,182,183,184,185,186,187,188,189,190,191,192,193,194,195,196,197,198,199,200,201,202,203,204,205,206,207,208,209,210,211,212,213,214,215,216,217,218,219,220,221,222,223,224,225,226];

precedenceAdjList = [[],[249],[],[],[],[35],[],[],[],[],[],[],[],[],[],[],[],[259],[],[],[],[],[261],[],[],[],[78],[],[],[],[],[72],[],[],[],[7],[],[83],[],[],[],[5],[],[],[37],[267],[],[],[],[],[],[],[],[],[],[],[],[],[],[],[],[251,253],[],[263],[],[],[265],[81],[],[],[257],[],[80],[],[94],[],[],[],[],[],[],[269],[28],[],[],[],[],[],[],[255],[],[],[],[],[],[],[],[],[],[],[],[],[],[],[],[],[],[],[],[],[],[],[],[],[],[],[],[],[],[],[],[],[],[],[],[],[],[],[],[],[],[],[],[],[],[],[],[],[],[],[],[],[],[],[],[],[],[],[],[],[],[],[],[],[],[],[],[],[],[],[],[],[],[],[],[],[],[],[],[],[],[],[],[],[],[],[],[],[],[],[],[],[],[],[],[],[],[],[],[],[],[],[],[],[],[],[],[],[],[],[],[],[],[],[],[],[],[],[],[],[],[],[],[],[],[],[],[],[],[],[],[],[],[],[],[],[],[],[],[],[],[],[],[],[],[],[],[],[],[],[],[],[],[],[],[],[],[],[79],[248],[8],[250],[89],[252],[70],[254],[15],[256],[70],[258],[12],[260],[19],[262],[23],[264],[49],[266],[59],[268],[100],[101],[102],[103],[104],[105],[106],[107],[108],[109],[110],[111],[112],[113],[114],[115],[116],[117],[118],[119],[120],[121],[122],[123],[124],[125],[126],[127],[128],[129],[130],[131],[132],[133],[134],[135],[136],[137],[138],[139],[140],[141],[142],[143],[144],[145],[146],[147],[148],[149],[150],[151],[152],[153],[154],[155],[156],[157],[158],[159],[160],[161],[162],[163],[164],[165],[166],[167],[168],[169],[170],[171],[172],[173],[174],[175],[176],[177],[178],[179],[180],[181],[182],[183],[184],[185],[186],[187],[188],[189],[190],[191],[192],[193],[194],[195],[196],[197],[198],[199],[200],[201],[202],[203],[204],[205],[206],[207],[208],[209],[210],[211],[212],[213],[214],[215],[216],[217],[218],[219],[220],[221],[222],[223],[224],[225],[226],[227],[228],[229],[230],[231],[232],[233],[234],[235],[236],[237],[238],[239],[240],[241],[242],[243],[244],[245],[246],[247]];